2079
2849
2032
7856
6951
4930
1921
9105
3899
678
4927
4695
2371
2272
3998
8161
9678
7244
4877
574
9494
5384
7106
7040
9270
7670
1203
1046
7833
5703
8895
8758
7444
3343
1816
8781
8467
1052
450
7324
1647
1909
1676
4518
5865
8553
9893
7203
2352
7646
1350
